param price:= 1	0.3
			  2	1
			  3	0.05
			  4	0.08
			  5	0.23
			  6	0.48;	

param calories:= 	1	1254
					2	1457
					3	318
					4	46
					5	309
					6	1725;
					 
param protein:= 	1	39
					2	73
					3	8
					4	4
					5	16
					6	43;
					 
param calcium:= 	 1	418
					 2	41
					 3	42
					 4	141
					 5	536
					 6	0;
					  
param vitamin:= 	 1	0
					 2	0
					 3	70
					 4	860
					 5	720
					 6	0;